
******************************************************************************
This program contains Ipopt, a library for large-scale nonlinear optimization.
 Ipopt is released as open source code under the Eclipse Public License (EPL).
         For more information visit http://projects.coin-or.org/Ipopt

This version of Ipopt was compiled from source code available at
    https://github.com/IDAES/Ipopt as part of the Institute for the Design of
    Advanced Energy Systems Process Systems Engineering Framework (IDAES PSE
    Framework) Copyright (c) 2018-2019. See https://github.com/IDAES/idaes-pse.

This version of Ipopt was compiled using HSL, a collection of Fortran codes
    for large-scale scientific computation.  All technical papers, sales and
    publicity material resulting from use of the HSL codes within IPOPT must
    contain the following acknowledgement:
        HSL, a collection of Fortran codes for large-scale scientific
        computation. See http://www.hsl.rl.ac.uk.
******************************************************************************

This is Ipopt version 3.13.2, running with linear solver ma27.

Number of nonzeros in equality constraint Jacobian...:      958
Number of nonzeros in inequality constraint Jacobian.:        0
Number of nonzeros in Lagrangian Hessian.............:      832

Total number of variables............................:      416
                     variables with only lower bounds:      128
                variables with lower and upper bounds:      224
                     variables with only upper bounds:        0
Total number of equality constraints.................:      415
Total number of inequality constraints...............:        0
        inequality constraints with only lower bounds:        0
   inequality constraints with lower and upper bounds:        0
        inequality constraints with only upper bounds:        0

iter    objective    inf_pr   inf_du lg(mu)  ||d||  lg(rg) alpha_du alpha_pr  ls
   0  0.0000000e+00 1.22e+00 2.49e-13  -1.0 0.00e+00    -  0.00e+00 0.00e+00   0
   1  1.0420515e+01 1.20e+00 6.15e+05  -1.0 1.29e+07    -  2.35e-02 1.53e-02h  3
   2  2.6300958e+01 1.19e+00 7.08e+05  -1.0 2.09e+07    -  2.22e-02 7.61e-03h  4
   3  4.6893330e+01 1.18e+00 7.74e+05  -1.0 2.76e+07    -  2.10e-02 5.74e-03h  4
   4  4.9636191e+01 1.18e+00 7.75e+05  -1.0 3.39e+07    -  2.02e-02 5.61e-04h  7
   5  4.1678202e+02 1.14e+00 3.67e+06  -1.0 3.82e+07    -  1.91e-02 2.97e-02h  1
   6  4.2445123e+02 1.14e+00 3.67e+06  -1.0 4.80e+07    -  2.71e-02 2.85e-04h  1
   7r 4.2445123e+02 1.14e+00 9.99e+02   0.1 0.00e+00    -  0.00e+00 3.14e-07R  6
   8r 4.2445292e+02 1.05e+00 9.89e+02   0.1 5.37e+02    -  3.14e-03 9.67e-03f  1
   9r 4.2445438e+02 9.45e-01 9.80e+02   0.1 5.30e+02    -  2.59e-02 9.75e-03f  1
iter    objective    inf_pr   inf_du lg(mu)  ||d||  lg(rg) alpha_du alpha_pr  ls
  10  4.2442339e+02 9.45e-01 5.72e+04  -1.0 6.35e+07    -  3.69e-02 2.67e-05h  1
  11  4.2094980e+02 2.22e+00 2.78e+05  -1.0 7.33e+07    -  3.12e-02 9.56e-04f  4
  12  4.1911602e+02 2.22e+00 9.98e+05  -1.0 7.03e+07    -  3.24e-02 5.10e-04f  5
  13  4.1725640e+02 2.22e+00 3.57e+06  -1.0 6.96e+07    -  3.56e-02 5.20e-04f  5
  14  4.1479177e+02 2.22e+00 1.18e+07  -1.0 6.97e+07    -  3.56e-02 5.02e-04f  5
  15  4.1345539e+02 2.22e+00 3.43e+07  -1.0 6.97e+07    -  3.25e-02 2.63e-04f  6
  16  4.1241072e+02 3.21e+01 1.28e+09  -1.0 6.96e+07    -  3.25e-02 5.66e-03F  1
  17  4.1020932e+02 3.20e+01 1.28e+09  -1.0 9.63e+07    -  2.36e-02 2.21e-03f  2
  18  4.0610300e+02 4.12e+01 1.28e+09  -1.0 6.08e+07    -  2.36e-02 9.32e-03f  1
  19  4.0541193e+02 4.11e+01 1.28e+09  -1.0 7.18e+07    -  2.17e-02 4.23e-03f  2
iter    objective    inf_pr   inf_du lg(mu)  ||d||  lg(rg) alpha_du alpha_pr  ls
  20  4.0431686e+02 4.10e+01 1.28e+09  -1.0 1.68e+08    -  2.18e-02 1.14e-03f  3
  21  4.0018271e+02 4.09e+01 1.28e+09  -1.0 6.42e+07    -  2.18e-02 3.72e-03f  3
  22  3.9831112e+02 4.08e+01 1.50e+10  -1.0 8.73e+07    -  2.20e-02 2.15e-03F  1
  23  6.1196490e+02 4.00e+01 1.70e+10  -1.0 4.24e+07    -  2.43e-02 1.84e-02h  2
  24  6.1463719e+02 4.00e+01 1.70e+10  -1.0 2.16e+08    -  1.79e-03 1.16e-04h  7
  25r 6.1463719e+02 4.00e+01 1.00e+03   1.6 0.00e+00    -  0.00e+00 4.18e-07R 15
  26r 6.1463603e+02 9.68e+00 9.94e+02   1.6 1.26e+04    -  8.07e-03 3.00e-03f  1
  27r 6.1463603e+02 9.68e+00 9.99e+02   1.0 0.00e+00    -  0.00e+00 2.44e-08R  2
  28r 6.1463577e+02 4.01e+00 9.96e+02   1.0 7.35e+03    -  5.03e-03 1.33e-03f  1
  29  6.1539537e+02 4.01e+00 1.24e+04  -1.0 1.25e+09    -  3.28e-04 1.85e-05h  1
iter    objective    inf_pr   inf_du lg(mu)  ||d||  lg(rg) alpha_du alpha_pr  ls
  30  6.2142294e+02 4.01e+00 1.83e+06  -1.0 5.33e+09    -  8.13e-05 3.81e-05h  1
  31  6.2162254e+02 4.01e+00 1.77e+06  -1.0 3.18e+08    -  5.16e-03 1.13e-04h  5
  32  6.2161229e+02 4.01e+00 1.77e+06  -1.0 3.99e+08    -  4.18e-03 2.35e-05h  7
  33  6.2159771e+02 4.01e+00 1.77e+06  -1.0 4.26e+08    -  1.31e-02 2.70e-06f 10
  34r 6.2159771e+02 4.01e+00 1.00e+03   0.6 0.00e+00    -  0.00e+00 3.34e-07R 13
  35r 6.2159768e+02 4.00e+00 9.97e+02   0.6 1.25e+04    -  5.31e-03 1.71e-03f  1
  36r 6.2159685e+02 3.95e+00 9.92e+02   0.6 4.50e+03    -  1.26e-02 4.86e-03f  1
  37r 6.2159658e+02 3.81e+00 9.91e+02   0.6 5.61e+03    -  3.21e-04 2.30e-03f  1
  38r 6.2159635e+02 3.73e+00 9.88e+02   0.6 4.90e+03    -  5.21e-03 2.45e-03f  1
  39r 6.2159606e+02 2.83e+00 9.84e+02   0.6 3.85e+03    -  1.99e-03 5.01e-03f  1
iter    objective    inf_pr   inf_du lg(mu)  ||d||  lg(rg) alpha_du alpha_pr  ls
  40r 6.2159606e+02 2.83e+00 9.99e+02   0.5 0.00e+00    -  0.00e+00 1.04e-08R  2
  41r 6.2159597e+02 2.62e+00 9.96e+02   0.5 3.78e+03    -  1.33e-02 2.53e-03f  1
  42r 6.2159550e+02 1.35e+00 9.84e+02   0.5 2.38e+03    -  1.46e-02 1.18e-02f  1
  43  6.2210265e+02 1.35e+00 1.92e+05  -1.0 1.98e+08    -  2.97e-03 1.14e-05h  1
  44r 6.2210265e+02 1.35e+00 1.00e+03   0.1 0.00e+00    -  0.00e+00 3.37e-07R  8
  45r 6.2210249e+02 9.20e-01 9.97e+02   0.1 5.45e+03    -  7.24e-03 1.60e-03f  1
  46r 6.2210249e+02 9.20e-01 9.99e+02  -0.0 0.00e+00    -  0.00e+00 5.68e-08R  2
  47r 6.2210220e+02 7.17e-01 9.93e+02  -0.0 3.01e+03    -  1.71e-02 6.00e-03f  1
  48r 6.2210220e+02 7.17e-01 9.99e+02  -0.1 0.00e+00    -  0.00e+00 4.43e-07R  4
  49r 6.2210098e+02 7.15e-01 9.89e+02  -0.1 2.82e+03    -  8.03e-03 9.56e-03f  1
iter    objective    inf_pr   inf_du lg(mu)  ||d||  lg(rg) alpha_du alpha_pr  ls
  50r 6.2210051e+02 7.14e-01 9.86e+02  -0.1 2.74e+03    -  1.11e-02 3.80e-03f  1
  51r 6.2209965e+02 7.13e-01 9.78e+02  -0.1 1.63e+03    -  4.59e-02 7.87e-03f  1
  52r 6.2209720e+02 6.99e-01 9.47e+02  -0.1 1.27e+03    -  3.04e-02 3.20e-02f  1
  53r 6.2209637e+02 6.97e-01 9.39e+02  -0.1 9.76e+02    -  2.19e-03 9.40e-03f  1
  54r 6.2209427e+02 6.94e-01 9.24e+02  -0.1 9.65e+02    -  1.51e-02 2.38e-02f  1
  55r 6.2209367e+02 6.94e-01 9.19e+02  -0.1 1.14e+03    -  5.38e-03 7.83e-03f  1
  56r 6.2209195e+02 6.94e-01 8.87e+02  -0.1 9.32e+02    -  5.25e-02 2.35e-02f  1
  57r 6.2209159e+02 6.94e-01 8.83e+02  -0.1 9.19e+02    -  2.01e-03 4.43e-03f  1
  58r 6.2208564e+02 6.87e-01 8.20e+02  -0.1 9.17e+02    -  7.16e-02 7.10e-02f  1
  59r 6.2208564e+02 6.88e-01 7.56e+02  -0.1 1.23e+01   0.0 5.84e-02 1.08e-01f  1
iter    objective    inf_pr   inf_du lg(mu)  ||d||  lg(rg) alpha_du alpha_pr  ls
  60r 6.2208564e+02 6.99e-01 7.24e+02  -0.1 4.12e+01  -0.5 4.26e-02 4.81e-02f  1
  61r 6.2208564e+02 6.78e-01 7.14e+02  -0.1 3.16e+01  -1.0 1.29e-02 2.54e-02f  1
  62r 6.2208564e+02 5.53e-01 8.57e+02  -0.1 3.80e-01   2.2 1.66e-01 3.76e-01f  1
  63  6.2190949e+02 5.53e-01 7.03e+04  -1.0 4.44e+08    -  6.14e-03 1.66e-05h  1
  64  6.1130255e+02 4.19e+01 1.01e+07  -1.0 5.79e+08    -  3.56e-03 1.03e-03F  1
  65  6.1204155e+02 4.19e+01 1.01e+07  -1.0 2.92e+08    -  7.30e-03 3.28e-05h  8
  66r 6.1204155e+02 4.19e+01 1.00e+03   1.6 0.00e+00    -  0.00e+00 4.96e-07R 14
  67r 6.1204140e+02 4.10e+00 9.94e+02   1.6 9.25e+03    -  6.90e-03 4.09e-03f  1
  68r 6.1204140e+02 4.10e+00 9.99e+02   0.6 0.00e+00    -  0.00e+00 4.84e-08R  2
  69r 6.1204138e+02 8.87e-01 9.93e+02   0.6 3.78e+03    -  7.87e-03 1.07e-03f  1
iter    objective    inf_pr   inf_du lg(mu)  ||d||  lg(rg) alpha_du alpha_pr  ls
  70  6.3784074e+02 8.87e-01 3.09e+04  -1.0 2.62e+08    -  9.33e-04 9.33e-04s 12
  71r 6.3784074e+02 8.87e-01 1.00e+03  -0.1 0.00e+00    -  0.00e+00 0.00e+00R  1
  72r 6.3784054e+02 5.09e-01 9.97e+02  -0.1 5.59e+03    -  3.19e-03 3.39e-03f  1
  73r 6.3784054e+02 5.09e-01 9.99e+02  -0.3 0.00e+00    -  0.00e+00 1.10e-08R  2
  74r 6.3784043e+02 4.95e-01 9.92e+02  -0.3 9.70e+02    -  1.18e-02 6.64e-03f  1
  75r 6.3784043e+02 5.82e-01 9.92e+02  -0.3 3.77e+06  -2.0 1.56e-07 7.78e-08f  1
  76r 6.3784095e+02 5.83e-01 9.84e+02  -0.3 4.20e+02    -  1.83e-02 8.61e-03f  1
  77r 6.3784150e+02 5.83e-01 9.75e+02  -0.3 5.90e+02    -  2.97e-03 9.36e-03f  1
  78r 6.3784158e+02 5.82e-01 9.73e+02  -0.3 1.23e+03    -  2.54e-02 1.04e-03f  1
  79r 6.3784324e+02 6.65e-01 9.50e+02  -0.3 6.51e+02    -  1.95e-01 2.42e-02f  1
iter    objective    inf_pr   inf_du lg(mu)  ||d||  lg(rg) alpha_du alpha_pr  ls
  80r 6.3784940e+02 6.59e-01 8.61e+02  -0.3 4.16e+02    -  1.25e-01 9.33e-02f  1
  81r 6.3786052e+02 6.49e-01 7.65e+02  -0.3 4.55e+02    -  1.87e-03 1.53e-01f  1
  82r 6.3786021e+02 6.48e-01 7.98e+02  -0.3 2.36e+02    -  7.95e-01 1.05e-02f  1
  83r 6.3781896e+02 1.85e+00 6.48e+02  -0.3 2.48e+02    -  1.56e-01 9.73e-01f  1
  84r 6.3781896e+02 1.61e+00 5.75e+02  -0.3 8.40e+00  -1.6 9.75e-01 1.30e-01f  1
  85r 6.3781896e+02 6.60e-01 1.58e+02  -0.3 2.08e+01  -2.1 5.68e-01 9.09e-01f  1
  86r 6.3781567e+02 6.54e-01 6.97e+02  -0.3 1.63e+03    -  1.42e-01 8.84e-03f  1
  87r 6.3776685e+02 5.87e-01 4.59e+01  -0.3 1.77e+02    -  9.44e-01 1.00e+00h  1
  88r 6.3776685e+02 5.87e-01 4.11e+02  -0.3 5.20e+00  -0.7 9.90e-01 1.27e-01h  1
  89r 6.3776976e+02 6.65e-01 6.77e+01  -0.3 1.25e+01    -  8.64e-01 1.00e+00f  1
iter    objective    inf_pr   inf_du lg(mu)  ||d||  lg(rg) alpha_du alpha_pr  ls
  90r 6.3776964e+02 6.47e-01 7.79e+02  -0.3 2.91e+02    -  9.96e-01 2.79e-02f  1
  91r 6.3777043e+02 6.47e-01 7.05e+02  -0.3 1.74e+02    -  1.00e+00 3.12e-01f  1
  92r 6.3776971e+02 5.87e-01 4.76e+01  -0.3 5.36e+01    -  9.53e-01 1.00e+00h  1
  93r 6.3776971e+02 5.87e-01 7.67e+01  -0.3 3.04e+01  -1.2 1.38e-01 3.59e-02f  3
  94r 6.3776974e+02 5.87e-01 1.90e+02  -0.3 4.48e+01    -  1.00e+00 5.26e-02h  1
  95r 6.3777047e+02 5.87e-01 1.59e+00  -0.3 5.04e+01    -  1.00e+00 1.00e+00f  1
  96r 6.3776969e+02 5.88e-01 1.30e+02  -1.7 4.44e+01    -  1.00e+00 7.26e-01f  1
  97r 6.3754619e+02 5.89e-01 3.44e+01  -1.7 9.23e+02    -  6.65e-01 7.27e-01f  1
  98r 6.3747160e+02 5.89e-01 2.97e-02  -1.7 4.37e+02    -  1.00e+00 1.00e+00f  1
  99r 6.3747242e+02 5.89e-01 1.69e+01  -3.8 1.04e+02    -  8.10e-01 9.37e-01f  1
iter    objective    inf_pr   inf_du lg(mu)  ||d||  lg(rg) alpha_du alpha_pr  ls
 100r 6.3721417e+02 5.89e-01 4.35e+02  -3.8 8.80e+03    -  3.21e-01 6.44e-02f  1
 101r 6.3395787e+02 5.89e-01 7.48e+01  -3.8 9.07e+03    -  7.64e-01 8.62e-01f  1
 102r 6.3342187e+02 5.89e-01 1.09e-03  -3.8 1.27e+03    -  1.00e+00 1.00e+00h  1
 103r 6.3342187e+02 5.89e-01 1.02e-06  -3.8 2.91e+01    -  1.00e+00 1.00e+00h  1
 104r 6.3342112e+02 5.89e-01 5.10e-02  -5.7 2.45e+01    -  9.81e-01 1.00e+00f  1
 105r 6.2657777e+02 5.89e-01 3.85e+01  -5.7 1.02e+05    -  4.89e-02 1.98e-01f  1
 106r 6.2657700e+02 5.89e-01 3.69e+02  -5.7 8.26e+04    -  8.23e-01 2.60e-05f  1
 107r 6.2651994e+02 5.89e-01 5.22e+02  -5.7 8.26e+04    -  1.00e+00 1.91e-03f  1
 108r 5.9933572e+02 5.89e-01 5.36e-02  -5.7 8.24e+04    -  1.00e+00 1.00e+00f  1
 109r 5.9911769e+02 5.89e-01 6.63e+00  -5.7 1.02e+04    -  1.00e+00 4.72e-01h  1
iter    objective    inf_pr   inf_du lg(mu)  ||d||  lg(rg) alpha_du alpha_pr  ls
 110r 5.9885121e+02 5.89e-01 1.25e-04  -5.7 5.56e+03    -  1.00e+00 1.00e+00h  1
 111r 5.9884905e+02 5.89e-01 1.14e-05  -5.7 8.55e+02    -  1.00e+00 1.00e+00h  1
 112r 5.9885013e+02 5.89e-01 1.14e-06  -5.7 2.68e+02    -  1.00e+00 1.00e+00h  1
 113r 5.9885027e+02 5.89e-01 1.77e-08  -5.7 3.34e+01    -  1.00e+00 1.00e+00h  1
 114r 5.9885027e+02 5.89e-01 3.94e-01  -8.6 8.59e-01    -  8.41e-01 1.00e+00f  1
 115r 5.9885027e+02 5.89e-01 4.79e+02  -8.6 1.54e-01  -1.7 1.00e+00 1.31e-01f  1
 116r 5.9885024e+02 5.89e-01 1.14e+01  -8.6 4.61e-01  -2.2 9.83e-01 1.00e+00f  1
 117r 5.9885018e+02 5.89e-01 3.24e-03  -8.6 1.38e+00  -2.6 1.00e+00 1.00e+00f  1
 118r 5.9884999e+02 5.89e-01 7.66e+00  -8.6 4.15e+00  -3.1 9.77e-01 1.00e+00f  1
 119r 5.9884941e+02 5.89e-01 3.23e-03  -8.6 1.24e+01  -3.6 1.00e+00 1.00e+00f  1
iter    objective    inf_pr   inf_du lg(mu)  ||d||  lg(rg) alpha_du alpha_pr  ls
 120r 5.9884767e+02 5.89e-01 3.23e-03  -8.6 3.72e+01  -4.1 1.00e+00 1.00e+00f  1
 121r 5.9884248e+02 5.89e-01 3.22e-03  -8.6 1.11e+02  -4.5 1.00e+00 1.00e+00f  1
 122r 5.9882702e+02 5.89e-01 4.70e-01  -8.6 3.30e+02  -5.0 5.20e-01 1.00e+00f  1
 123r 5.9878173e+02 5.89e-01 3.07e-03  -8.6 9.56e+02  -5.5 1.00e+00 1.00e+00f  1
 124r 5.9865424e+02 5.89e-01 1.89e-01  -8.6 2.61e+03  -6.0 3.89e-01 1.00e+00f  1
 125r 5.9832498e+02 5.89e-01 2.32e-03  -8.6 6.28e+03  -6.4 1.00e+00 1.00e+00f  1
 126r 5.9756977e+02 5.90e-01 1.57e-01  -8.6 1.25e+04  -6.9 3.74e-01 1.00e+00f  1
 127r 5.9596488e+02 5.90e-01 2.75e-03  -8.6 2.16e+04  -7.4 1.00e+00 1.00e+00f  1
 128r 5.9487587e+02 5.90e-01 1.34e-01  -8.6 3.72e+04  -7.9 3.62e-01 3.04e-01f  1
 129r 5.9410682e+02 5.90e-01 6.16e+02  -8.6 1.71e+05  -8.4 8.52e-01 7.85e-02f  1
iter    objective    inf_pr   inf_du lg(mu)  ||d||  lg(rg) alpha_du alpha_pr  ls
 130r 5.9410682e+02 5.90e-01 6.16e+02  -8.6 4.88e+04  -7.9 0.00e+00 8.05e-13R 15
 131r 5.9410682e+02 5.90e-01 9.26e+02  -8.6 2.48e+05  -8.4 1.00e+00 1.20e-08f  1
 132r 5.9157499e+02 5.90e-01 3.39e+02  -8.6 5.64e+04  -8.0 1.00e+00 6.35e-01f  1
 133r 5.9066405e+02 5.90e-01 3.32e+02  -8.6 8.24e+05  -8.5 1.00e+00 6.82e-02f  1
 134r 5.9061905e+02 5.90e-01 3.32e+02  -8.6 2.02e+05  -8.0 2.50e-01 1.07e-02f  1
 135r 5.9061905e+02 5.90e-01 6.19e+02  -8.6 1.24e+05  -8.5 6.51e-01 1.75e-07h  1
 136r 5.8306384e+02 6.47e-01 4.19e+02  -8.6 1.25e+06  -9.0 1.27e-02 2.03e-01f  1
 137r 5.8306384e+02 6.47e-01 1.06e+03  -8.6 1.11e+05  -7.7 0.00e+00 2.03e-12R 10
 138r 5.8306384e+02 6.47e-01 1.06e+03  -8.6 1.29e+04  -7.2 1.00e-02 1.35e-10f  1
 139r 5.8298589e+02 5.90e-01 9.91e+02  -8.6 6.70e+05  -7.7 1.14e-01 4.22e-02f  1
iter    objective    inf_pr   inf_du lg(mu)  ||d||  lg(rg) alpha_du alpha_pr  ls
 140r 5.8262783e+02 5.90e-01 9.50e+02  -8.6 3.57e+05  -8.2 3.43e-02 9.82e-02f  1
 141r 5.8214050e+02 5.90e-01 9.15e+02  -8.6 1.03e+05  -8.7 3.60e-02 3.80e-02f  1
 142r 5.8214050e+02 5.90e-01 1.28e+03  -8.6 5.14e+05  -9.1 1.00e+00 6.74e-09h  1
 143r 5.8137916e+02 5.90e-01 1.13e+03  -8.6 1.21e+05  -8.7 1.00e+00 5.27e-02f  1
 144r 5.8015392e+02 5.90e-01 1.16e+03  -8.6 6.90e+05  -9.2 1.53e-01 2.41e-02f  1
 145r 5.8015388e+02 5.90e-01 1.53e+03  -8.6 1.12e+05  -8.8 1.00e+00 2.35e-06f  1
 146r 5.7745894e+02 5.91e-01 1.44e+03  -8.6 4.89e+05  -9.2 4.50e-02 5.19e-02f  1
 147r 5.7745893e+02 5.91e-01 1.23e+03  -8.6 1.35e+05  -8.8 1.00e+00 3.14e-07f  1
 148r 5.7248850e+02 5.91e-01 1.17e+03  -8.6 6.86e+05  -9.3 1.69e-01 8.26e-02f  1
 149r 5.7248850e+02 5.91e-01 1.41e+03  -8.6 1.83e+05  -8.9 1.00e+00 6.87e-08h  1
iter    objective    inf_pr   inf_du lg(mu)  ||d||  lg(rg) alpha_du alpha_pr  ls
 150r 5.6891016e+02 5.92e-01 1.60e+03  -8.6 1.49e+06  -9.3 1.00e+00 4.61e-02f  1
 151r 5.6890994e+02 5.92e-01 1.06e+03  -8.6 2.80e+05  -8.9 1.00e+00 1.06e-05f  1
 152r 5.6737845e+02 5.92e-01 8.23e+02  -8.6 7.72e+04  -8.5 1.00e+00 2.23e-01f  1
 153r 5.6736084e+02 5.92e-01 8.19e+02  -8.6 3.73e+05  -9.0 1.00e+00 7.59e-04f  1
 154r 5.6499019e+02 5.92e-01 5.64e+02  -8.6 9.33e+04  -8.5 1.00e+00 3.22e-01f  1
 155r 5.6499010e+02 5.92e-01 7.27e+02  -8.6 5.93e+05  -9.0 1.00e+00 3.57e-06f  1
 156r 5.6041413e+02 5.92e-01 2.90e+02  -8.6 1.19e+05  -8.6 1.00e+00 5.94e-01f  1
 157r 5.6041399e+02 5.92e-01 7.27e+02  -8.6 6.66e+06  -9.1 8.95e-01 1.49e-06f  1
 158r 5.5522419e+02 5.92e-01 2.61e+02  -8.6 1.96e+05  -8.6 1.00e+00 6.80e-01f  1
 159r 5.5522419e+02 5.92e-01 8.12e+02  -8.6 1.31e+05  -9.1 0.00e+00 7.96e-13R 15
iter    objective    inf_pr   inf_du lg(mu)  ||d||  lg(rg) alpha_du alpha_pr  ls
 160r 5.5522419e+02 5.92e-01 8.12e+02  -8.6 4.84e+05  -9.6 9.12e-01 1.64e-08f  1
 161r 5.3898873e+02 5.92e-01 7.69e+02  -8.6 4.75e+06 -10.1 1.00e+00 3.48e-02f  1
 162r 5.3600432e+02 5.92e-01 7.29e+02  -8.6 8.65e+05  -9.7 1.00e+00 3.24e-02f  1
 163r 5.3590795e+02 5.92e-01 7.73e+02  -8.6 2.21e+05  -9.2 1.00e+00 3.84e-03f  1
 164r 5.3147071e+02 5.92e-01 8.89e+02  -8.6 1.24e+06  -9.7 1.00e+00 4.41e-02f  1
 165r 5.2864358e+02 5.92e-01 9.00e+02  -8.6 2.86e+05  -9.3 1.00e+00 1.07e-01f  1
 166r 5.2864236e+02 5.92e-01 8.62e+02  -8.6 1.35e+06  -9.8 1.00e+00 1.18e-05f  1
 167r 5.1493768e+02 5.92e-01 4.07e+02  -8.6 2.75e+05  -9.3 1.00e+00 5.40e-01f  1
 168r 5.1407945e+02 5.92e-01 4.02e+02  -8.6 1.18e+08  -9.8 2.30e-01 3.80e-04f  1
 169r 5.1407865e+02 5.92e-01 8.51e+02  -8.6 2.18e+05  -9.4 1.00e+00 3.25e-05f  1
iter    objective    inf_pr   inf_du lg(mu)  ||d||  lg(rg) alpha_du alpha_pr  ls
 170r 5.0742715e+02 5.92e-01 7.86e+02  -8.6 9.51e+05  -9.9 1.00e+00 7.71e-02f  1
 171r 5.0742646e+02 5.92e-01 8.03e+02  -8.6 4.74e+06 -10.3 2.04e-01 1.74e-06f  1
 172r 5.0742646e+02 5.92e-01 7.97e+02  -8.6 6.29e+04  -9.0 1.00e+00 1.79e-08h  2
 173r 4.9687379e+02 5.92e-01 4.56e+02  -8.6 1.95e+05  -9.5 1.00e+00 4.05e-01f  1
 174r 4.9687299e+02 5.92e-01 4.60e+02  -8.6 8.91e+05 -10.0 4.18e-01 1.01e-05f  1
 175r 4.9400307e+02 5.92e-01 4.18e+02  -8.6 2.42e+05  -9.5 1.71e-09 9.65e-02f  1
 176r 4.9400307e+02 5.92e-01 1.29e+03  -8.6 4.76e-01   0.3 9.96e-04 2.52e-04h  1
 177r 4.9400307e+02 5.92e-01 1.28e+03  -8.6 1.59e-01  -0.2 1.09e-08 2.24e-03f  1
 178r 4.9400307e+02 5.92e-01 3.29e+03  -8.6 3.06e-01  -0.6 1.10e-03 3.91e-03h  1
 179r 4.9400307e+02 5.92e-01 6.58e+03  -8.6 1.66e-01  -0.2 1.79e-05 1.17e-02h  1
iter    objective    inf_pr   inf_du lg(mu)  ||d||  lg(rg) alpha_du alpha_pr  ls
 180r 4.9400307e+02 5.92e-01 6.50e+03  -8.6 1.66e-01  -0.7 7.68e-04 1.14e-02f  1
 181r 4.9400307e+02 5.92e-01 1.06e+04  -8.6 1.64e-01  -0.3 3.13e-03 3.89e-02f  1
 182r 4.9400307e+02 5.92e-01 1.03e+04  -8.6 1.13e-01  -0.7 9.01e-03 3.21e-02f  1
 183r 4.9400307e+02 5.92e-01 9.19e+03  -8.6 2.96e-02  -0.3 4.88e-03 1.06e-01f  1
 184r 4.9400307e+02 5.92e-01 9.68e+03  -8.6 1.48e-01  -0.8 1.29e-02 1.11e-01f  1
 185r 4.9400307e+02 5.92e-01 1.08e+04  -8.6 4.07e-02  -0.4 4.71e-03 1.34e-01f  1
 186r 4.9400307e+02 5.92e-01 1.06e+04  -8.6 2.18e-01  -0.8 1.67e-02 1.96e-02f  1
 187r 4.9400307e+02 5.92e-01 8.19e+03  -8.6 5.99e-02  -0.4 1.06e-02 2.26e-01f  1
 188r 4.9400307e+02 5.92e-01 7.90e+03  -8.6 3.19e-01  -0.9 3.20e-02 3.53e-02f  1
 189r 4.9400307e+02 5.92e-01 7.46e+03  -8.6 8.39e-02  -0.5 2.39e-02 5.63e-02f  1
iter    objective    inf_pr   inf_du lg(mu)  ||d||  lg(rg) alpha_du alpha_pr  ls
 190r 4.9400307e+02 5.92e-01 6.91e+03  -8.6 4.98e-01  -0.9 7.93e-03 7.37e-02f  1
 191r 4.9400307e+02 5.92e-01 6.27e+03  -8.6 9.09e-02  -0.5 1.42e-02 9.26e-02f  1
 192r 4.9400307e+02 5.92e-01 6.08e+03  -8.6 1.05e+00  -1.0 1.48e-03 3.01e-02f  1
 193r 4.9400307e+02 5.92e-01 6.08e+03  -8.6 1.19e-01  -0.6 6.80e-03 5.71e-04f  1
 194r 4.9400307e+02 5.92e-01 6.08e+03  -8.6 5.48e-01  -1.1 5.42e-03 1.16e-04h  1
 195r 4.9400307e+02 5.92e-01 6.05e+03  -8.6 3.42e-01  -1.5 2.66e-02 4.77e-03f  1
 196r 4.9400307e+02 5.92e-01 3.13e+03  -8.6 7.08e-01  -2.0 5.16e-03 4.83e-01f  1
 197r 4.9400307e+02 5.92e-01 3.00e+03  -8.6 1.85e+00  -2.5 8.09e-02 3.97e-02f  1
 198r 4.9400307e+02 5.92e-01 2.71e+03  -8.6 1.14e+00  -3.0 2.58e-01 9.84e-02f  1
 199r 4.9400306e+02 5.92e-01 1.43e+03  -8.6 2.50e+00  -3.4 2.24e-01 4.73e-01f  1
iter    objective    inf_pr   inf_du lg(mu)  ||d||  lg(rg) alpha_du alpha_pr  ls
 200r 4.9400300e+02 5.92e-01 2.42e+03  -8.6 8.39e+00  -3.9 7.28e-02 7.20e-01f  1
 201r 4.9400299e+02 5.92e-01 2.34e+03  -8.6 4.65e+01  -4.4 5.51e-02 3.20e-02f  1
 202r 4.9400295e+02 5.92e-01 2.20e+03  -8.6 6.74e+01  -4.9 4.41e-01 6.09e-02f  1
 203r 4.9400285e+02 5.92e-01 2.11e+03  -8.6 2.16e+02  -5.3 4.77e-06 5.02e-02f  1
 204r 4.9400285e+02 5.92e-01 2.28e+03  -8.6 6.03e+02  -5.8 6.82e-01 2.97e-04f  1
 205r 4.9400282e+02 5.92e-01 2.26e+03  -8.6 1.75e+03  -6.3 2.09e-02 1.35e-03f  1
 206r 4.9400224e+02 5.92e-01 2.23e+03  -8.6 4.29e+03  -6.8 1.30e-02 1.26e-02f  1
 207r 4.9400137e+02 5.92e-01 2.22e+03  -8.6 8.54e+03  -7.3 2.93e-02 5.79e-03f  1
 208r 4.9400085e+02 5.92e-01 2.22e+03  -8.6 2.38e+04  -7.7 1.87e-03 1.10e-03f  1
 209r 4.9399944e+02 5.92e-01 2.72e+03  -8.6 5.88e+04  -8.2 9.63e-01 9.42e-04f  1
iter    objective    inf_pr   inf_du lg(mu)  ||d||  lg(rg) alpha_du alpha_pr  ls
 210r 4.9399351e+02 5.92e-01 2.72e+03  -8.6 1.02e+05  -8.7 7.98e-09 1.06e-03f  1
 211r 4.9398405e+02 5.92e-01 2.72e+03  -8.6 2.51e+05  -9.2 2.03e-03 4.79e-04f  1
 212r 4.9397732e+02 5.92e-01 2.72e+03  -8.6 1.57e+06  -9.6 1.51e-06 6.33e-05f  1
 213r 4.9397518e+02 5.92e-01 3.11e+03  -8.6 2.81e+05  -9.2 7.93e-01 1.20e-04f  1
 214r 4.9390342e+02 5.92e-01 3.10e+03  -8.6 1.80e+06  -9.7 7.54e-10 6.83e-04f  1
 215r 4.9389494e+02 5.92e-01 3.09e+03  -8.6 2.21e+05  -9.3 9.63e-01 5.90e-04f  1
 216r 4.9375045e+02 5.92e-01 3.28e+03  -8.6 4.52e+05  -9.7 1.00e+00 3.35e-03f  1
 217r 4.9238217e+02 5.92e-01 3.27e+03  -8.6 3.89e+06 -10.2 2.33e-02 6.65e-03f  1
 218r 4.9194875e+02 5.92e-01 3.10e+03  -8.6 5.55e+05  -9.8 1.00e+00 9.23e-03f  1
 219r 4.8862028e+02 5.92e-01 3.56e+03  -8.6 1.11e+07 -10.3 1.00e+00 8.12e-03f  1
iter    objective    inf_pr   inf_du lg(mu)  ||d||  lg(rg) alpha_du alpha_pr  ls
 220r 4.8862017e+02 5.92e-01 3.22e+03  -8.6 5.86e+05  -9.8 1.00e+00 2.55e-06f  1
 221r 4.8647986e+02 5.92e-01 3.48e+03  -8.6 5.88e+06 -10.3 9.03e-01 1.23e-02f  1
 222r 4.8690870e+02 5.92e-01 3.48e+03  -8.6 1.36e+08 -10.8 5.30e-12 1.60e-05f  1
 223r 4.8690870e+02 5.92e-01 3.48e+03  -8.6 1.01e+02  -1.0 1.32e-05 9.35e-06f  1
 224r 4.8690870e+02 5.92e-01 2.70e+04  -8.6 1.07e+02  -1.4 2.33e-05 1.39e-05f  1
 225r 4.8690870e+02 5.92e-01 2.39e+04  -8.6 1.96e+02  -1.9 5.46e-06 1.08e-04f  1
 226r 4.8690870e+02 5.92e-01 2.39e+04  -8.6 4.14e+02  -2.4 1.05e-04 5.76e-05f  1
 227r 4.8690870e+02 5.92e-01 2.39e+04  -8.6 5.11e+01  -2.9 5.83e-05 1.27e-03h  1
 228r 4.8690870e+02 5.92e-01 2.38e+04  -8.6 7.43e+01  -3.3 2.48e-03 3.22e-05f  1
 229r 4.8690872e+02 5.92e-01 2.40e+04  -8.6 9.15e+01  -3.8 2.69e-03 8.00e-02h  1
In iteration 229, 1 Slack too small, adjusting variable bound
iter    objective    inf_pr   inf_du lg(mu)  ||d||  lg(rg) alpha_du alpha_pr  ls
 230r 4.8690872e+02 5.92e-01 2.34e+04  -8.6 8.79e+01  -4.3 2.07e-02 7.57e-03h  1
 231r 4.8690855e+02 5.92e-01 4.58e+03  -8.6 2.51e+01  -4.8 8.96e-01 4.09e-01h  1
 232r 4.8690839e+02 5.92e-01 3.91e+03  -8.6 6.90e+01  -5.2 5.46e-01 1.35e-01h  1
 233r 4.8690820e+02 5.92e-01 3.70e+03  -8.6 1.32e+02  -5.7 2.66e-01 5.45e-02f  1
 234r 4.8690685e+02 5.92e-01 3.21e+03  -8.6 2.69e+02  -6.2 6.94e-02 1.32e-01f  1
 235r 4.8690540e+02 5.92e-01 3.23e+03  -8.6 7.35e+02  -6.7 1.59e-01 4.40e-02f  1
 236r 4.8689803e+02 5.92e-01 2.95e+03  -8.6 2.01e+03  -7.2 4.49e-02 7.43e-02f  1
 237r 4.8687058e+02 5.92e-01 3.67e+03  -8.6 4.66e+03  -7.6 1.00e+00 9.49e-02f  1
 238r 4.8684833e+02 5.92e-01 3.58e+03  -8.6 1.29e+04  -8.1 8.97e-02 2.61e-02f  1
 239r 4.8683796e+02 5.92e-01 3.61e+03  -8.6 3.79e+04  -8.6 1.00e+00 3.94e-03f  1
iter    objective    inf_pr   inf_du lg(mu)  ||d||  lg(rg) alpha_du alpha_pr  ls
 240r 4.8677989e+02 5.92e-01 3.54e+03  -8.6 1.07e+05  -9.1 1.00e+00 7.70e-03f  1
 241r 4.8669454e+02 5.92e-01 3.55e+03  -8.6 1.89e+05  -9.5 1.00e+00 4.15e-03f  1
 242r 4.8235855e+02 5.93e-01 3.56e+03  -8.6 3.09e+05 -10.0 1.00e+00 1.07e-01f  1
 243r 4.8235912e+02 5.93e-01 3.60e+03  -8.6 6.16e+05 -10.5 1.83e-01 1.66e-05f  1
 244r 4.8235912e+02 5.93e-01 3.62e+03  -8.6 3.40e+01  -0.7 1.96e-05 7.74e-08h  2
In iteration 244, 1 Slack too small, adjusting variable bound
 245r 4.8235912e+02 5.93e-01 3.63e+03  -8.6 3.09e+01  -1.1 2.43e-05 4.35e-06h  1
 246r 4.8235912e+02 5.93e-01 3.58e+03  -8.6 6.43e+01  -1.6 4.92e-06 6.39e-05h  1
In iteration 246, 1 Slack too small, adjusting variable bound
 247r 4.8235912e+02 5.93e-01 3.56e+03  -8.6 1.09e+02  -2.1 3.30e-05 6.12e-05h  1
 248r 4.8235912e+02 5.93e-01 6.24e+03  -8.6 1.24e+02  -2.6 4.41e-05 8.76e-04h  1
In iteration 248, 1 Slack too small, adjusting variable bound
 249r 4.8235912e+02 5.93e-01 6.16e+03  -8.6 2.70e+01  -3.0 4.62e-04 1.19e-04h  1
iter    objective    inf_pr   inf_du lg(mu)  ||d||  lg(rg) alpha_du alpha_pr  ls
 250r 4.8235912e+02 5.93e-01 6.14e+03  -8.6 4.26e+01  -3.5 2.16e-04 2.82e-03h  1
In iteration 250, 1 Slack too small, adjusting variable bound
 251r 4.8235912e+02 5.93e-01 6.13e+03  -8.6 5.64e+01  -4.0 5.69e-03 1.01e-03h  1
 252r 4.8235910e+02 5.93e-01 5.71e+03  -8.6 6.04e+01  -4.5 1.48e-02 6.84e-02h  1
In iteration 252, 1 Slack too small, adjusting variable bound
 253r 4.8235908e+02 5.93e-01 5.58e+03  -8.6 5.91e+01  -4.9 9.31e-02 2.37e-02h  1
 254r 4.8235896e+02 5.93e-01 5.22e+03  -8.6 5.69e+01  -5.4 3.34e-01 6.52e-02h  1
 255r 4.8235879e+02 5.93e-01 5.05e+03  -8.6 1.13e+02  -5.9 1.00e+00 3.27e-02f  1
 256r 4.8235874e+02 5.93e-01 5.03e+03  -8.6 2.79e+02  -6.4 8.38e-01 3.61e-03h  1
 257r 4.8235152e+02 5.93e-01 4.16e+03  -8.6 7.46e+02  -6.9 8.76e-01 1.73e-01f  1
 258r 4.8234483e+02 5.93e-01 5.56e+03  -8.6 2.24e+03  -7.3 1.00e+00 5.55e-02f  1
 259r 4.8228851e+02 5.93e-01 4.46e+03  -8.6 4.23e+03  -7.8 1.00e+00 1.57e-01f  1
iter    objective    inf_pr   inf_du lg(mu)  ||d||  lg(rg) alpha_du alpha_pr  ls
 260r 4.8207796e+02 5.93e-01 3.62e+03  -8.6 1.22e+04  -8.3 1.00e+00 1.99e-01f  1
 261r 4.8006737e+02 5.93e-01 1.22e+03  -8.6 1.48e+04  -8.8 1.00e+00 6.59e-01f  1
 262r 4.8006737e+02 5.93e-01 1.22e+03  -8.6 1.53e+04  -9.2 0.00e+00 3.13e-12R 13
 263r 4.8006737e+02 5.93e-01 2.00e+03  -8.6 3.81e+04  -9.7 7.81e-01 8.02e-12f 11
 264r 4.8192878e+02 5.94e-01 2.63e+02  -8.6 7.64e+04 -10.2 9.27e-09 7.83e-01f  1
 265r 4.9904762e+02 6.08e-01 1.78e+02  -8.6 3.42e+05 -10.7 5.95e-01 2.99e-01f  1
 266r 4.6245085e+02 6.07e-01 1.94e+01  -8.6 1.17e+05    -  8.35e-01 9.33e-01f  1
 267r 4.6205884e+02 6.08e-01 1.81e+00  -8.6 6.05e+03    -  1.00e+00 8.37e-01h  1
 268r 4.6155213e+02 6.08e-01 6.31e-03  -8.6 1.88e+03    -  1.00e+00 1.00e+00h  1
 269r 4.6154666e+02 6.08e-01 7.93e-05  -8.6 2.59e+02    -  1.00e+00 1.00e+00h  1

Number of Iterations....: 269

                                   (scaled)                 (unscaled)
Objective...............:   4.6154654231526428e+02    4.6154654231526428e+02
Dual infeasibility......:   7.5033405287653189e-04    7.5033405287653189e-04
Constraint violation....:   6.0846576920079753e-01    6.0846576920079753e-01
Complementarity.........:   2.9718664931572320e-09    2.9718664931572320e-09
Overall NLP error.......:   6.0846576920079753e-01    6.0846576920079753e-01


Number of objective function evaluations             = 551
Number of objective gradient evaluations             = 56
Number of equality constraint evaluations            = 555
Number of inequality constraint evaluations          = 0
Number of equality constraint Jacobian evaluations   = 287
Number of inequality constraint Jacobian evaluations = 0
Number of Lagrangian Hessian evaluations             = 270
Total CPU secs in IPOPT (w/o function evaluations)   =      0.435
Total CPU secs in NLP function evaluations           =      6.548

EXIT: Converged to a point of local infeasibility. Problem may be infeasible.
